c "870910.clq"
p edge 100 1344
e 1 17
e 1 18
e 1 20
e 1 21
e 1 22
e 1 23
e 1 24
e 1 25
e 1 27
e 1 28
e 1 29
e 1 32
e 1 36
e 1 37
e 1 42
e 1 45
e 1 48
e 1 50
e 1 51
e 1 52
e 1 63
e 1 83
e 1 94
e 1 97
e 1 100
e 2 17
e 2 18
e 2 19
e 2 22
e 2 23
e 2 24
e 2 38
e 2 78
e 2 89
e 3 17
e 3 18
e 3 19
e 3 20
e 3 21
e 3 24
e 3 25
e 3 26
e 3 27
e 3 30
e 3 31
e 3 32
e 3 36
e 3 38
e 3 39
e 3 40
e 3 44
e 3 45
e 3 46
e 3 48
e 3 49
e 3 51
e 3 60
e 3 62
e 3 66
e 3 68
e 3 70
e 3 79
e 3 88
e 3 100
e 4 17
e 4 18
e 4 19
e 4 20
e 4 22
e 4 23
e 4 24
e 4 26
e 4 27
e 4 41
e 5 17
e 5 18
e 5 19
e 5 20
e 5 21
e 5 23
e 5 24
e 5 25
e 5 28
e 5 33
e 5 34
e 5 38
e 5 41
e 5 42
e 5 46
e 5 47
e 5 49
e 5 54
e 5 58
e 5 60
e 5 61
e 5 74
e 5 78
e 5 81
e 5 83
e 5 85
e 5 93
e 5 94
e 5 95
e 6 17
e 6 18
e 6 19
e 6 20
e 6 21
e 6 22
e 6 23
e 6 25
e 6 26
e 6 28
e 6 29
e 6 30
e 6 31
e 6 32
e 6 33
e 6 35
e 6 36
e 6 39
e 6 40
e 6 41
e 6 42
e 6 43
e 6 44
e 6 46
e 6 51
e 6 52
e 6 54
e 6 55
e 6 57
e 6 58
e 6 59
e 6 61
e 6 63
e 6 64
e 6 69
e 6 72
e 6 73
e 6 75
e 6 76
e 6 79
e 6 82
e 6 92
e 6 97
e 6 98
e 6 99
e 7 17
e 7 18
e 7 19
e 7 21
e 7 22
e 7 23
e 7 24
e 7 25
e 7 26
e 7 27
e 7 28
e 7 29
e 7 30
e 7 31
e 7 32
e 7 33
e 7 35
e 7 37
e 7 45
e 7 49
e 7 50
e 7 52
e 7 53
e 7 54
e 7 55
e 7 62
e 7 63
e 7 65
e 7 73
e 7 83
e 7 85
e 7 87
e 7 88
e 7 96
e 8 17
e 8 18
e 8 20
e 8 21
e 8 24
e 8 27
e 8 28
e 8 29
e 8 30
e 8 31
e 8 34
e 8 42
e 8 46
e 8 47
e 8 50
e 8 53
e 8 62
e 8 77
e 8 78
e 8 81
e 8 86
e 9 17
e 9 18
e 9 19
e 9 20
e 9 21
e 9 22
e 9 23
e 9 24
e 9 25
e 9 26
e 9 27
e 9 28
e 9 30
e 9 33
e 9 35
e 9 36
e 9 37
e 9 38
e 9 43
e 9 49
e 9 54
e 9 58
e 9 59
e 9 60
e 9 65
e 9 79
e 9 82
e 9 85
e 9 94
e 9 99
e 9 100
e 10 17
e 10 19
e 10 20
e 10 21
e 10 22
e 10 23
e 10 25
e 10 26
e 10 31
e 10 33
e 10 34
e 10 35
e 10 38
e 10 39
e 10 41
e 10 42
e 10 43
e 10 50
e 10 51
e 10 58
e 10 62
e 10 63
e 10 64
e 10 65
e 10 67
e 10 72
e 10 73
e 10 80
e 10 81
e 10 83
e 10 86
e 10 89
e 10 91
e 10 94
e 10 95
e 11 17
e 11 18
e 11 19
e 11 20
e 11 21
e 11 23
e 11 27
e 11 30
e 11 32
e 11 37
e 11 38
e 11 44
e 11 61
e 11 64
e 11 66
e 11 70
e 11 80
e 11 96
e 11 98
e 12 17
e 12 18
e 12 19
e 12 20
e 12 21
e 12 22
e 12 23
e 12 25
e 12 26
e 12 27
e 12 28
e 12 31
e 12 34
e 12 35
e 12 36
e 12 37
e 12 38
e 12 43
e 12 46
e 12 48
e 12 49
e 12 52
e 12 56
e 12 58
e 12 69
e 12 71
e 12 74
e 12 76
e 12 82
e 12 84
e 12 87
e 12 91
e 12 96
e 13 17
e 13 18
e 13 19
e 13 20
e 13 22
e 13 31
e 13 32
e 13 33
e 13 36
e 13 43
e 13 44
e 13 58
e 13 59
e 13 62
e 13 68
e 13 71
e 13 73
e 13 75
e 13 77
e 13 86
e 13 90
e 13 91
e 14 17
e 14 18
e 14 19
e 14 20
e 14 21
e 14 23
e 14 24
e 14 29
e 14 30
e 14 32
e 14 35
e 14 36
e 14 38
e 14 46
e 14 51
e 14 57
e 14 62
e 14 69
e 14 72
e 14 80
e 14 84
e 14 85
e 14 88
e 14 89
e 14 90
e 14 96
e 15 17
e 15 18
e 15 19
e 15 20
e 15 21
e 15 22
e 15 23
e 15 24
e 15 25
e 15 26
e 15 28
e 15 29
e 15 33
e 15 35
e 15 36
e 15 43
e 15 48
e 15 49
e 15 52
e 15 59
e 15 65
e 15 72
e 15 73
e 15 80
e 15 84
e 15 86
e 16 17
e 16 18
e 16 19
e 16 22
e 16 28
e 16 29
e 16 30
e 16 35
e 16 37
e 16 40
e 16 48
e 16 55
e 16 58
e 16 69
e 16 73
e 16 75
e 16 77
e 16 82
e 16 85
e 17 18
e 17 19
e 17 20
e 17 21
e 17 22
e 17 23
e 17 24
e 17 25
e 17 26
e 17 27
e 17 28
e 17 29
e 17 30
e 17 31
e 17 32
e 17 35
e 17 36
e 17 37
e 17 39
e 17 40
e 17 41
e 17 44
e 17 45
e 17 46
e 17 47
e 17 48
e 17 50
e 17 51
e 17 52
e 17 55
e 17 56
e 17 62
e 17 65
e 17 66
e 17 68
e 17 71
e 17 76
e 17 77
e 17 78
e 17 80
e 17 81
e 17 88
e 17 89
e 17 90
e 17 91
e 17 92
e 17 93
e 17 94
e 17 95
e 17 97
e 17 99
e 17 100
e 18 19
e 18 20
e 18 21
e 18 22
e 18 23
e 18 24
e 18 25
e 18 27
e 18 28
e 18 29
e 18 33
e 18 34
e 18 35
e 18 36
e 18 37
e 18 38
e 18 39
e 18 41
e 18 44
e 18 46
e 18 48
e 18 49
e 18 50
e 18 51
e 18 52
e 18 54
e 18 55
e 18 56
e 18 60
e 18 65
e 18 66
e 18 70
e 18 73
e 18 77
e 18 78
e 18 85
e 18 88
e 18 99
e 19 20
e 19 21
e 19 22
e 19 24
e 19 25
e 19 26
e 19 27
e 19 28
e 19 29
e 19 30
e 19 31
e 19 34
e 19 36
e 19 38
e 19 39
e 19 41
e 19 42
e 19 44
e 19 45
e 19 46
e 19 47
e 19 48
e 19 50
e 19 53
e 19 54
e 19 56
e 19 59
e 19 60
e 19 62
e 19 63
e 19 64
e 19 68
e 19 70
e 19 74
e 19 76
e 19 79
e 19 81
e 19 83
e 19 89
e 19 91
e 19 93
e 19 94
e 19 97
e 19 98
e 20 21
e 20 22
e 20 24
e 20 25
e 20 26
e 20 28
e 20 29
e 20 30
e 20 31
e 20 32
e 20 33
e 20 34
e 20 35
e 20 37
e 20 40
e 20 43
e 20 47
e 20 49
e 20 53
e 20 56
e 20 58
e 20 64
e 20 65
e 20 66
e 20 69
e 20 71
e 20 76
e 20 83
e 20 86
e 20 88
e 20 91
e 20 92
e 20 94
e 20 96
e 21 22
e 21 23
e 21 24
e 21 25
e 21 26
e 21 27
e 21 28
e 21 29
e 21 30
e 21 31
e 21 33
e 21 34
e 21 36
e 21 37
e 21 40
e 21 44
e 21 46
e 21 49
e 21 53
e 21 56
e 21 66
e 21 67
e 21 70
e 21 74
e 21 75
e 21 76
e 21 77
e 21 81
e 21 84
e 21 85
e 21 87
e 21 88
e 21 89
e 21 90
e 21 91
e 21 93
e 21 95
e 21 97
e 21 99
e 22 23
e 22 24
e 22 25
e 22 26
e 22 27
e 22 33
e 22 34
e 22 36
e 22 38
e 22 39
e 22 41
e 22 42
e 22 43
e 22 44
e 22 47
e 22 50
e 22 51
e 22 55
e 22 56
e 22 59
e 22 61
e 22 67
e 22 70
e 22 73
e 22 78
e 22 80
e 22 85
e 22 89
e 22 90
e 22 92
e 22 96
e 22 98
e 23 25
e 23 26
e 23 27
e 23 32
e 23 33
e 23 34
e 23 38
e 23 39
e 23 40
e 23 42
e 23 43
e 23 44
e 23 45
e 23 47
e 23 48
e 23 51
e 23 53
e 23 55
e 23 56
e 23 57
e 23 58
e 23 59
e 23 61
e 23 62
e 23 64
e 23 66
e 23 69
e 23 71
e 23 72
e 23 78
e 23 81
e 23 83
e 23 94
e 24 26
e 24 27
e 24 30
e 24 31
e 24 32
e 24 35
e 24 36
e 24 38
e 24 47
e 24 51
e 24 55
e 24 56
e 24 57
e 24 60
e 24 62
e 24 64
e 24 66
e 24 74
e 24 77
e 24 94
e 24 96
e 25 26
e 25 27
e 25 28
e 25 29
e 25 30
e 25 31
e 25 32
e 25 33
e 25 34
e 25 37
e 25 38
e 25 39
e 25 40
e 25 41
e 25 43
e 25 44
e 25 45
e 25 46
e 25 52
e 25 55
e 25 56
e 25 57
e 25 58
e 25 61
e 25 62
e 25 63
e 25 64
e 25 65
e 25 66
e 25 67
e 25 68
e 25 69
e 25 71
e 25 74
e 25 76
e 25 79
e 25 82
e 25 83
e 25 84
e 25 85
e 25 86
e 25 87
e 25 92
e 25 97
e 26 29
e 26 30
e 26 32
e 26 34
e 26 39
e 26 40
e 26 41
e 26 42
e 26 46
e 26 47
e 26 48
e 26 49
e 26 53
e 26 56
e 26 58
e 26 61
e 26 63
e 26 66
e 26 76
e 26 78
e 26 86
e 26 93
e 26 97
e 26 98
e 27 28
e 27 29
e 27 31
e 27 32
e 27 33
e 27 36
e 27 37
e 27 39
e 27 43
e 27 60
e 27 63
e 27 64
e 27 66
e 27 72
e 27 80
e 27 84
e 27 87
e 27 88
e 27 89
e 27 94
e 27 95
e 27 97
e 27 100
e 28 29
e 28 32
e 28 33
e 28 34
e 28 40
e 28 41
e 28 42
e 28 43
e 28 45
e 28 56
e 28 59
e 28 62
e 28 63
e 28 77
e 28 81
e 28 85
e 28 100
e 29 30
e 29 31
e 29 34
e 29 35
e 29 39
e 29 40
e 29 41
e 29 43
e 29 44
e 29 46
e 29 49
e 29 50
e 29 51
e 29 52
e 29 53
e 29 56
e 29 57
e 29 60
e 29 64
e 29 67
e 29 71
e 29 73
e 29 74
e 29 75
e 29 77
e 29 91
e 29 94
e 29 100
e 30 31
e 30 42
e 30 44
e 30 45
e 30 48
e 30 49
e 30 52
e 30 54
e 30 90
e 30 98
e 31 32
e 31 35
e 31 37
e 31 42
e 31 44
e 31 45
e 31 47
e 31 49
e 31 58
e 31 64
e 31 65
e 31 69
e 31 71
e 31 72
e 31 75
e 31 80
e 31 93
e 31 94
e 32 33
e 32 34
e 32 35
e 32 36
e 32 37
e 32 39
e 32 40
e 32 41
e 32 43
e 32 45
e 32 46
e 32 50
e 32 53
e 32 54
e 32 56
e 32 61
e 32 65
e 32 69
e 32 70
e 32 71
e 32 72
e 32 76
e 32 78
e 32 79
e 32 84
e 32 94
e 32 95
e 32 98
e 33 34
e 33 35
e 33 38
e 33 39
e 33 40
e 33 41
e 33 50
e 33 54
e 33 58
e 33 59
e 33 61
e 33 62
e 33 65
e 33 68
e 33 74
e 33 77
e 33 79
e 33 83
e 33 88
e 33 92
e 33 95
e 33 98
e 34 44
e 34 45
e 34 46
e 34 47
e 34 48
e 34 50
e 34 54
e 34 55
e 34 66
e 34 68
e 34 72
e 34 74
e 34 75
e 34 80
e 34 88
e 34 96
e 35 37
e 35 38
e 35 40
e 35 52
e 35 55
e 35 56
e 35 67
e 35 71
e 35 75
e 35 79
e 35 84
e 35 96
e 36 37
e 36 39
e 36 43
e 36 44
e 36 46
e 36 49
e 36 51
e 36 53
e 36 55
e 36 59
e 36 79
e 36 91
e 36 97
e 36 98
e 36 99
e 37 39
e 37 41
e 37 42
e 37 47
e 37 49
e 37 51
e 37 57
e 37 58
e 37 63
e 37 74
e 37 81
e 37 84
e 37 87
e 37 89
e 37 95
e 38 40
e 38 42
e 38 45
e 38 47
e 38 50
e 38 51
e 38 52
e 38 53
e 38 57
e 38 58
e 38 60
e 38 61
e 38 63
e 38 64
e 38 67
e 38 68
e 38 73
e 38 77
e 38 78
e 38 82
e 38 83
e 38 87
e 38 91
e 38 93
e 38 96
e 38 99
e 39 40
e 39 41
e 39 43
e 39 45
e 39 47
e 39 48
e 39 52
e 39 53
e 39 57
e 39 60
e 39 61
e 39 66
e 39 68
e 39 72
e 39 80
e 39 82
e 39 83
e 39 85
e 39 86
e 39 91
e 39 93
e 39 96
e 39 97
e 39 100
e 40 42
e 40 52
e 40 54
e 40 55
e 40 57
e 40 59
e 40 63
e 40 66
e 40 69
e 40 73
e 40 75
e 40 79
e 40 81
e 40 87
e 40 91
e 40 92
e 40 94
e 41 42
e 41 54
e 41 57
e 41 59
e 41 60
e 41 67
e 41 68
e 41 76
e 41 80
e 41 81
e 41 100
e 42 45
e 42 47
e 42 49
e 42 52
e 42 54
e 42 55
e 42 62
e 42 65
e 42 67
e 42 69
e 42 72
e 42 81
e 42 82
e 42 83
e 42 86
e 43 45
e 43 50
e 43 51
e 43 53
e 43 55
e 43 59
e 43 67
e 43 69
e 43 70
e 43 74
e 43 76
e 43 82
e 43 84
e 43 98
e 44 48
e 44 54
e 44 57
e 44 58
e 44 60
e 44 67
e 44 69
e 44 70
e 44 71
e 44 72
e 44 79
e 44 83
e 44 87
e 44 90
e 44 98
e 45 47
e 45 48
e 45 57
e 45 60
e 45 70
e 45 71
e 45 73
e 45 89
e 45 90
e 45 96
e 45 98
e 46 50
e 46 51
e 46 57
e 46 64
e 46 65
e 46 70
e 46 72
e 46 88
e 46 90
e 46 99
e 47 48
e 47 50
e 47 53
e 47 54
e 47 56
e 47 57
e 47 75
e 47 80
e 47 85
e 47 92
e 47 97
e 48 57
e 48 61
e 48 66
e 48 68
e 48 69
e 48 71
e 48 75
e 48 82
e 48 95
e 48 100
e 49 53
e 49 59
e 49 62
e 49 65
e 49 67
e 49 70
e 49 75
e 49 92
e 49 95
e 50 68
e 50 76
e 50 79
e 50 86
e 50 90
e 50 93
e 51 52
e 51 54
e 51 55
e 51 61
e 51 71
e 51 74
e 51 78
e 51 81
e 51 85
e 51 92
e 51 96
e 52 53
e 52 61
e 52 63
e 52 67
e 52 74
e 52 92
e 53 64
e 53 67
e 53 68
e 53 69
e 53 74
e 53 75
e 54 60
e 54 77
e 54 96
e 55 59
e 55 63
e 55 65
e 55 71
e 55 76
e 55 80
e 55 84
e 55 89
e 55 92
e 55 98
e 56 60
e 56 61
e 56 67
e 56 68
e 56 70
e 56 72
e 56 97
e 57 69
e 57 72
e 57 74
e 57 80
e 57 81
e 57 82
e 57 85
e 57 86
e 57 98
e 57 99
e 58 59
e 58 63
e 58 64
e 58 70
e 58 73
e 58 82
e 58 84
e 58 89
e 58 95
e 59 60
e 59 61
e 59 63
e 59 65
e 59 67
e 59 68
e 59 70
e 59 73
e 59 76
e 59 86
e 59 88
e 59 89
e 59 90
e 59 91
e 59 96
e 60 78
e 60 80
e 61 62
e 61 73
e 61 77
e 61 82
e 61 93
e 61 94
e 61 98
e 62 64
e 62 76
e 62 77
e 62 84
e 62 86
e 62 92
e 62 95
e 62 97
e 63 76
e 63 79
e 63 81
e 63 84
e 63 91
e 63 99
e 64 66
e 64 68
e 65 75
e 65 79
e 65 81
e 65 87
e 65 90
e 66 73
e 66 82
e 66 84
e 66 89
e 66 90
e 66 92
e 67 72
e 67 80
e 67 100
e 68 78
e 68 88
e 68 92
e 68 93
e 68 98
e 68 100
e 69 70
e 69 71
e 69 93
e 70 78
e 70 79
e 70 87
e 70 89
e 70 95
e 71 75
e 71 77
e 71 79
e 71 91
e 72 74
e 72 75
e 72 87
e 73 77
e 73 78
e 73 82
e 73 85
e 73 88
e 73 97
e 73 99
e 73 100
e 74 82
e 74 83
e 74 90
e 75 86
e 76 78
e 76 84
e 77 97
e 78 93
e 79 89
e 79 99
e 80 83
e 80 86
e 80 87
e 80 88
e 80 90
e 80 92
e 80 100
e 81 83
e 81 86
e 81 87
e 81 90
e 81 93
e 82 88
e 82 95
e 83 93
e 84 85
e 84 87
e 84 99
e 85 87
e 86 95
e 86 100
e 88 91
e 88 95
e 89 99
e 91 93
e 92 94
e 93 99
e 94 96
e 94 97
e 95 99
e 95 100
